# LAMMPS input script for standardized atomistic simulations
# Created by emc_setup.pl v4.1.3, April 7, 2022 as part of EMC
# on Thu Jan 19 13:30:02 JST 2023

# LAMMPS atomistic input script

echo		screen
units		real
atom_style	full

# Variable definitions

variable	project		index	"liquid"	# project name
variable	source		index	./build	# data directory
variable	params		index	./build	# parameter directory
variable	temperature	index	300		# system temperature
variable	tdamp		index	100		# temperature damping
variable	dielectric	index	1		# medium dielectric
variable	kappa		index	4		# electrostatics kappa
variable	cutoff		index	9.5		# standard cutoff
variable	charge_cutoff	index	9.5		# charge cutoff
variable	precision	index	0.001		# kspace precision
variable	lseed		index	723853		# langevin seed
variable	vseed		index	486234		# velocity seed
variable	tequil		index	1000		# equilibration time
variable	dlimit		index	0.1		# nve/limit distance
variable	trun		index	10000000		# run time
variable	frestart	index	0		# 0: equil, 1: restart
variable	dtrestart	index	100000		# delta restart time
variable	dtdump		index	100000		# delta dump time
variable	dtthermo	index	1000		# delta thermo time
variable	timestep	index	1		# integration time step
variable	tfreq		index	10		# profile sampling freq
variable	nsample		index	1000		# profile conf sampling
variable	dtime		equal	${tfreq}*${nsample}	# profile dtime
variable	restart		index	${params}/${project}.restart

if "${frestart} != 0" then &
"variable	data		index	${restart}" &
else &
"variable	data		index	${params}/${project}.data" &

# Interaction potential definition

pair_style	lj/class2/coul/long ${cutoff} ${charge_cutoff}
bond_style	harmonic
special_bonds	lj/coul 0 0 1
if "${frestart} != 0" then "read_restart ${data}" else "read_data ${data}"
include		${params}/${project}.params

# Integration conditions (check)

timestep	${timestep}
if "${flag_charged} != 0" then "kspace_style pppm/cg ${precision}"
dielectric	${dielectric}
fix		mom all momentum 100 linear 1 1 1 angular

# Equilibration

thermo		${dtthermo}
if "${frestart} != 0" then "jump SELF simulate"
velocity	all create ${temperature} ${vseed} &
		dist gaussian rot yes mom yes sum yes
fix		temp all langevin ${temperature} ${temperature} ${tdamp} &
		${lseed}
fix		int all nve/limit ${dlimit}
run		${tequil}
unfix		temp
unfix		int
write_restart	${project}.restart2

# Simulation

label		simulate

# Integrator

fix		temp all langevin ${temperature} ${temperature} ${tdamp} &
		${lseed}
fix		int all nve

# System sampling: pressure

fix		sample_press all ave/time ${tfreq} ${nsample} ${dtime} &
		c_thermo_temp &
		c_thermo_press[1] c_thermo_press[2] c_thermo_press[3] &
		c_thermo_press[4] c_thermo_press[5] c_thermo_press[6] &
		file ${project}.pressure

# Run conditions

restart		${dtrestart} ${project}.restart1 ${project}.restart2
dump		1 all custom ${dtdump} ${project}.dump id type x y z
run		${trun}

