Ca Si 
 1.0000000000000000
     3.7379497991811839    0.6359305507184533    0.8970026144573102
    -0.7238098987315956    4.4881446263056342   -0.1669620076882167
     1.2188260099394634    0.6221622312850800   11.4117172922986292
 Ca  Si 
   4   4
Selective dynamics
Cartesian
  3.3144633786469129  1.2079174022313726  7.6323610143671452   T   T   T
  0.5217121635661952  3.1322384386167768  9.4388892159991844   T   T   T
  0.4741705247207935  2.8229433243824218  1.3945200571450722   T   T   T
  1.4193691088212577  5.3831949114862780  4.0980508732344347   T   T   T
  1.2592808698756797  3.1364672940665099  6.3642338354936419   T   T   T
  2.8807477138623394  0.8992791406303793  1.1903575004170965   T   T   T
  2.5768946723374251  1.2036885467816378 10.7070163948726957   T   T   T
  3.4745516175924926  3.4546450196511369  5.3661780521079292   T   T   T
