Al4 Cu16
1.0
6.292111 0.000000 0.000000
0.000000 6.292111 0.000000
0.000000 0.000000 6.292111
Al Cu
4 16
direct
0.436278 0.936278 0.563722 Al
0.936278 0.563722 0.436278 Al
0.563722 0.436278 0.936278 Al
0.063722 0.063722 0.063722 Al
0.809730 0.309730 0.190270 Cu
0.309730 0.190270 0.809730 Cu
0.190270 0.809730 0.309730 Cu
0.690270 0.690270 0.690270 Cu
0.046078 0.876933 0.702288 Cu
0.297712 0.546078 0.623067 Cu
0.376933 0.797712 0.953922 Cu
0.546078 0.623067 0.297712 Cu
0.797712 0.953922 0.376933 Cu
0.876933 0.702288 0.046078 Cu
0.953922 0.376933 0.797712 Cu
0.702288 0.046078 0.876933 Cu
0.623067 0.297712 0.546078 Cu
0.453922 0.123067 0.202288 Cu
0.202288 0.453922 0.123067 Cu
0.123067 0.202288 0.453922 Cu
