Al3 Cu2
1.0
4.137986 0.000000 0.000000
-2.068993 3.583601 0.000000
0.000000 0.000000 5.030834
Al Cu
3 2
direct
0.000000 0.000000 0.000000 Al
0.333333 0.666667 0.352033 Al
0.666667 0.333333 0.647967 Al
0.333333 0.666667 0.840868 Cu
0.666667 0.333333 0.159132 Cu
