Al2 Cu6
1.0
5.207290 0.000000 0.000000
-2.603645 4.509645 0.000000
0.000000 0.000000 4.235207
Al Cu
2 6
direct
0.666667 0.333333 0.250000 Al
0.333333 0.666667 0.750000 Al
0.331667 0.165833 0.750000 Cu
0.834167 0.165833 0.750000 Cu
0.834167 0.668333 0.750000 Cu
0.668333 0.834167 0.250000 Cu
0.165833 0.834167 0.250000 Cu
0.165833 0.331667 0.250000 Cu
