Ca Si 
 1.0000000000000000
     3.8819313381298577    0.0580203119198068   -0.0300265270977550
    -0.0803801851873949    5.7982140552714236    0.8120762065370692
     0.0331184023684294    2.3272250156838750    8.7785605202429142
 Ca  Si 
   4   4
Selective dynamics
Cartesian
  1.6911537024763474  6.3647705695256755  4.2467169007446479   T   T   T
  1.7077098386173244  7.5288251639598602  8.6364551463846251   T   T   T
  3.6813974722525979  3.4948254757377977  5.0008873502401299   T   T   T
  3.6648436101841355  2.3309289579520072  0.6117485562032298   T   T   T
  3.7166690584105120 -0.7187364211100717  1.4190445501573525   T   T   T
  3.6528413850954911  6.2435380785742645  6.6204017485126538   T   T   T
  1.7197199612572849  3.6155801120779261  2.6275941652065056   T   T   T
  1.7362581717103731  4.7800630841805427  7.0158426720070750   T   T   T
