ID_390
1.0
   3.8772036597092936    0.0596906216962675   -0.0294932374963539
  -0.0711951673078982    5.5891127759662700    1.5954997181207291
   0.0249457398941404    3.2801025508256325    9.6998096502956628
Ca Si
4 4
direct
   0.4515635142602787    0.9611524332670368    0.3999072005989694 Ca
   0.4511568056742107    0.7364658939601375    0.8996979777284280 Ca
   0.9511333183489380    0.3241986275016339    0.5371736289729766 Ca
   0.9509924889097263    0.4505598999580654    0.1827372232209529 Ca
   0.9508899125721100    0.0987809815705162    0.0373382045410889 Si
   0.9512354520190742    0.6813955888771820    0.6825812948176084 Si
   0.4508283671394104    0.6095296403011828    0.2543207716667011 Si
   0.4512719922184026    0.3791290340195267    0.7543556705370127 Si
