Al2 Cu1
1.0
4.105182 0.000000 0.000000
0.000000 4.105182 0.000000
0.000000 0.000000 2.891313
Al Cu
2 1
direct
0.000000 0.500000 0.500000 Al
0.500000 0.000000 0.500000 Al
0.000000 0.000000 0.000000 Cu
