Al4 Cu12
1.0
5.836932 0.000000 0.000000
0.000000 5.836932 0.000000
0.000000 0.000000 5.836932
Al Cu
4 12
direct
0.000000 0.000000 0.000000 Al
0.000000 0.500000 0.500000 Al
0.500000 0.000000 0.500000 Al
0.500000 0.500000 0.000000 Al
0.500000 0.000000 0.000000 Cu
0.250000 0.750000 0.750000 Cu
0.250000 0.250000 0.750000 Cu
0.500000 0.500000 0.500000 Cu
0.250000 0.250000 0.250000 Cu
0.250000 0.750000 0.250000 Cu
0.000000 0.000000 0.500000 Cu
0.750000 0.750000 0.250000 Cu
0.750000 0.250000 0.250000 Cu
0.000000 0.500000 0.000000 Cu
0.750000 0.250000 0.750000 Cu
0.750000 0.750000 0.750000 Cu
