Ca Si 
 1.0000000000000000
     3.8965463762359125    0.0324157179694386    0.0472136470273205
    -0.0617480282881961    5.7475467179526660    1.1526171016256523
    -0.1232186418054483    1.8139695749139932    8.9156115629929467
 Ca  Si 
   4   4
Selective dynamics
Cartesian
  2.4842904841959506  5.8728102105534452  7.0586664190648634   T   T   T
  0.6146540927149778  2.0111020043150973  3.1749110405343641   T   T   T
  0.5528709034309334  2.9184628649261719  7.6326630903494124   T   T   T
  2.5455815691237418  4.9654203458480364  2.6019747086335645   T   T   T
  0.5093606679008478  5.5691004489144751  9.4149051124738783   T   T   T
  2.5274190875703422  3.2206767875075180  5.2779404758910973   T   T   T
  0.5712265956279547  4.6619795259359256  4.9568431746218398   T   T   T
  2.4663541217186080  4.1280201998145873  9.7343312639685511   T   T   T
