Ca Si 
 1.0000000000000000
     3.8819410220888995    0.0568481410822181   -0.0308056300973567
    -0.0596443479386235    5.3553921594005702    2.3667182849079054
     0.0268783765345124    4.1073536066631551   10.9666865671937241
 Ca  Si 
   4   4
Selective dynamics
Cartesian
  3.6763803008266822  1.7848927632367915  1.0842399466774411   T   T   T
  1.7020416981423714  7.1066260511584796  6.7678773022476744   T   T   T
  3.6898297400618070  3.8379604389963333  6.5677509230796796   T   T   T
  1.7751258780387458  3.8047196325564498  9.8842308316863150   T   T   T
  1.7290016835298905  6.9938403416396975  9.9570805418322532   T   T   T
  3.6763114327902633  6.0038209949221546  8.8610938827202084   T   T   T
  1.7155588255855299  4.9405605463323692  4.4740074587818972   T   T   T
  3.6628795387846336  3.9503495727364868  3.3790487848664679   T   T   T
