ID_477
1.0
   3.8776252280559165    0.0561224527851302   -0.0309600431216905
  -0.0692157684882985    5.5895002159052689    1.5926038723339804
   0.0273285482287838    3.2823344172315720    9.6995940217599390
Ca Si
4 4
direct
   0.9512998968737348    0.0984130372055708    0.0374695948907888 Ca
   0.4511535299586536    0.9615203776319817    0.3997758102492697 Ca
   0.9509443610792029    0.3238571555314760    0.5374560173054098 Ca
   0.4510442236851372    0.3787988081482790    0.7545010674264403 Ca
   0.4515090657531848    0.7360762593060750    0.8997893878346499 Si
   0.9514092031472502    0.6811346066892736    0.6827443377136188 Si
   0.4512383740547370    0.6092318487917926    0.2545523195567578 Si
   0.9512150527776506    0.4507015660457596    0.1826930855833009 Si
