Ca Si 
 1.0000000000000000
     3.8819704937187502    0.0580208971489834   -0.0300268299640987
    -0.0803798361608643    5.7982162725929367    0.8121256144058927
     0.0331203652173334    2.3270602717238451    8.7784959489633536
 Ca  Si 
   4   4
Selective dynamics
Cartesian
  3.6823578422221521  0.8815244119780552  0.4087017266343488   T   T   T
  1.7252151065659758  6.0785256669137331  8.4330518939308057   T   T   T
  3.6989213995107573  2.0445818398628717  4.7974725767240916   T   T   T
  1.7086497531994311  4.9152826818452766  4.0436902883112813   T   T   T
  1.6568233775672627  7.9650555886002916  3.2364821721416064   T   T   T
  3.6703744863382797  4.7932690161575433  6.4181238871153798   T   T   T
  3.6537905906968429  3.6307452340122093  2.0277547903548632   T   T   T
  1.7537700272128223  3.3298931276585115  6.8135413922535406   T   T   T
