Al8 Cu4
1.0
5.769110 0.000000 0.000000
0.000000 5.769110 0.000000
0.000000 0.000000 5.769110
Al Cu
8 4
direct
0.250000 0.750000 0.750000 Al
0.250000 0.250000 0.750000 Al
0.250000 0.250000 0.250000 Al
0.250000 0.750000 0.250000 Al
0.750000 0.750000 0.250000 Al
0.750000 0.250000 0.250000 Al
0.750000 0.250000 0.750000 Al
0.750000 0.750000 0.750000 Al
0.000000 0.000000 0.000000 Cu
0.000000 0.500000 0.500000 Cu
0.500000 0.000000 0.500000 Cu
0.500000 0.500000 0.000000 Cu
