Ca Si 
 1.0000000000000000
     3.8953618089747239    0.0600747897447006    0.0864060647365449
    -0.1124009023039351    5.7442709690368252    1.1593443674479202
    -0.2241475551829671    1.7962805968869628    8.9157433176791674
 Ca  Si 
   4   4
Selective dynamics
Cartesian
  2.8735748521219397  1.7734459263468689  1.0542234107047961   T   T   T
 -3.0500150455022488 -0.3573303683132955  5.9745763499885722   T   T   T
  4.8527823500386900 -1.1353210872673758  1.6895168206220756   T   T   T
 -1.1338607344442715  2.6115114350456481  5.4256890048078343   T   T   T
  0.8771841697213688  1.4523055245517646  3.3888519428136390   T   T   T
  2.6172627659776322  6.6662960907068172  9.3435699089037776   T   T   T
  2.7293365435691146  5.7681557922633360  4.8856982500641921   T   T   T
  0.7651103921298863  2.3504458229952472  7.8467236016532285   T   T   T
