Al8 Cu4
1.0
6.079802 0.000000 0.000000
0.000000 6.079802 0.000000
0.000000 0.000000 4.818644
Al Cu
8 4
direct
0.657612 0.157611 0.000000 Al
0.342388 0.157611 0.500000 Al
0.657612 0.842388 0.500000 Al
0.342388 0.842388 0.000000 Al
0.157611 0.657612 0.500000 Al
0.842388 0.657612 0.000000 Al
0.157611 0.342388 0.000000 Al
0.842388 0.342388 0.500000 Al
0.000000 0.000000 0.750000 Cu
0.000000 0.000000 0.250000 Cu
0.500000 0.500000 0.250000 Cu
0.500000 0.500000 0.750000 Cu
