Al1 Cu1
1.0
2.997509 0.000000 0.000000
0.000000 2.997509 0.000000
0.000000 0.000000 2.997509
Al Cu
1 1
direct
0.000000 0.000000 0.000000 Al
0.500000 0.500000 0.500000 Cu
