Ca Si 
 1.0000000000000000
     3.7553205209048253    0.3738434641807739    0.9650162941548065
    -0.4022653623958716    4.5300733938220112   -0.1916096868970691
     1.0557806067184452    0.5826422600116520   11.4176706955520384
 Ca  Si 
   4   4
Selective dynamics
Cartesian
  0.8357710369170215  4.6583873454297899  9.4165360377952094   T   T   T
  1.2585897703969788  2.0462377508182650  0.9026160272835658   T   T   T
  2.3866736752081454  2.2889512506033447  4.2860136805451292   T   T   T
  3.4630076530106741  4.7895173098254791  6.9981546786884445   T   T   T
  3.1030569712895097  2.5672829083028175  9.2646984213432457   T   T   T
  0.4963737262799405  4.3540767431176066  2.9775500830412982   T   T   T
  2.7466243569293147  4.5111856521260121  2.0194699378903205   T   T   T
  1.5979870810340591  2.3505483531304456  7.3416019820374672   T   T   T
