Al4 Cu15
1.0
3.608770 0.000000 0.000000
0.000000 3.608770 0.000000
0.000000 0.000000 18.456224
Al Cu
4 15
direct
0.000000 0.000000 0.191048 Al
0.000000 0.000000 0.396653 Al
0.000000 0.000000 0.603347 Al
0.000000 0.000000 0.808952 Al
0.500000 0.500000 0.000000 Cu
0.500000 0.500000 0.189616 Cu
0.500000 0.500000 0.396599 Cu
0.500000 0.500000 0.603401 Cu
0.500000 0.500000 0.810384 Cu
0.500000 0.000000 0.090001 Cu
0.500000 0.000000 0.292700 Cu
0.500000 0.000000 0.500000 Cu
0.500000 0.000000 0.707300 Cu
0.500000 0.000000 0.909999 Cu
0.000000 0.500000 0.090001 Cu
0.000000 0.500000 0.292700 Cu
0.000000 0.500000 0.500000 Cu
0.000000 0.500000 0.707300 Cu
0.000000 0.500000 0.909999 Cu
