Al16 Cu36
1.0
8.701462 0.000000 0.000000
0.000000 8.701462 0.000000
0.000000 0.000000 8.701462
Al Cu
16 36
direct
0.121188 0.121188 0.121188 Al
0.878812 0.121188 0.878812 Al
0.878812 0.878812 0.121188 Al
0.121188 0.878812 0.878812 Al
0.809804 0.465791 0.190196 Al
0.465791 0.809804 0.190196 Al
0.809804 0.534209 0.809804 Al
0.534209 0.809804 0.809804 Al
0.190196 0.809804 0.465791 Al
0.809804 0.190196 0.465791 Al
0.534209 0.190196 0.190196 Al
0.465791 0.190196 0.809804 Al
0.190196 0.465791 0.809804 Al
0.190196 0.534209 0.190196 Al
0.809804 0.809804 0.534209 Al
0.190196 0.190196 0.534209 Al
0.325268 0.674732 0.674732 Cu
0.644270 0.000000 0.000000 Cu
0.000000 0.000000 0.355730 Cu
0.000000 0.000000 0.644270 Cu
0.000000 0.644270 0.000000 Cu
0.000000 0.355730 0.000000 Cu
0.855021 0.500000 0.500000 Cu
0.144979 0.500000 0.500000 Cu
0.500000 0.500000 0.855021 Cu
0.500000 0.500000 0.144979 Cu
0.355730 0.000000 0.000000 Cu
0.500000 0.855021 0.500000 Cu
0.316331 0.316331 0.030153 Cu
0.683669 0.030153 0.683669 Cu
0.683669 0.969847 0.316331 Cu
0.969847 0.683669 0.316331 Cu
0.030153 0.683669 0.683669 Cu
0.316331 0.683669 0.969847 Cu
0.683669 0.316331 0.969847 Cu
0.030153 0.316331 0.316331 Cu
0.316331 0.030153 0.316331 Cu
0.969847 0.316331 0.683669 Cu
0.316331 0.969847 0.683669 Cu
0.683669 0.683669 0.030153 Cu
0.674732 0.674732 0.325268 Cu
0.674732 0.325268 0.674732 Cu
0.325268 0.325268 0.325268 Cu
0.830670 0.169330 0.169330 Cu
0.169330 0.169330 0.830670 Cu
0.169330 0.830670 0.169330 Cu
0.830670 0.830670 0.830670 Cu
0.606082 0.393918 0.393918 Cu
0.393918 0.393918 0.606082 Cu
0.393918 0.606082 0.393918 Cu
0.606082 0.606082 0.606082 Cu
0.500000 0.144979 0.500000 Cu
