Al3 Cu1
1.0
2.826175 0.000000 0.000000
0.000000 2.826175 0.000000
0.000000 0.000000 7.467971
Al Cu
3 1
direct
0.000000 0.000000 0.500000 Al
0.500000 0.500000 0.226310 Al
0.500000 0.500000 0.773690 Al
0.000000 0.000000 0.000000 Cu
