Al2 Cu6
1.0
4.239885 0.000000 0.000000
0.000000 4.514307 0.000000
0.000000 0.000000 5.181486
Al Cu
2 6
direct
0.000000 0.333434 0.000000 Al
0.500000 0.666566 0.500000 Al
0.000000 0.332442 0.500000 Cu
0.500000 0.667558 0.000000 Cu
0.000000 0.834288 0.250990 Cu
0.000000 0.834288 0.749010 Cu
0.500000 0.165712 0.249010 Cu
0.500000 0.165712 0.750990 Cu
