Al3 Cu1
1.0
3.924151 0.000000 0.000000
0.000000 3.924151 0.000000
0.000000 0.000000 3.924151
Al Cu
3 1
direct
0.000000 0.500000 0.500000 Al
0.500000 0.000000 0.500000 Al
0.500000 0.500000 0.000000 Al
0.000000 0.000000 0.000000 Cu
