Al10 Cu10
1.0
9.900533 0.000000 -6.919320
0.000000 4.095770 0.000000
0.000000 0.000000 6.920313
Al Cu
10 10
direct
0.000000 0.500000 0.500000 Al
0.843780 0.000000 0.538569 Al
0.156220 0.000000 0.461431 Al
0.621769 0.000000 0.004275 Al
0.378231 0.000000 0.995725 Al
0.500000 0.000000 0.500000 Al
0.343780 0.500000 0.538569 Al
0.656220 0.500000 0.461431 Al
0.121769 0.500000 0.004275 Al
0.878231 0.500000 0.995725 Al
0.000000 0.000000 0.000000 Cu
0.242053 0.500000 0.759416 Cu
0.757947 0.500000 0.240584 Cu
0.891048 0.000000 0.228138 Cu
0.108952 0.000000 0.771862 Cu
0.500000 0.500000 0.000000 Cu
0.742053 0.000000 0.759416 Cu
0.257947 0.000000 0.240584 Cu
0.391048 0.500000 0.228138 Cu
0.608952 0.500000 0.771862 Cu
