Ca Si 
 1.0000000000000000
     5.8122455629045326    0.7571155001962198    0.0797529148211253
     1.2095781676255313    4.3854799313499333   -0.0323301116719385
    -0.1241802812345831    0.0909105875881006    7.7902644729044175
 Ca  Si 
   4   4
Selective dynamics
Cartesian
  1.7111574996476144  2.2881263274436621  4.5282662926128152   T   T   T
  4.5703664267967792  1.5113809488237180  6.5307908568335238   T   T   T
  1.7738968546860248  2.2406943997124760  0.6326230538489708   T   T   T
  4.6313598990560108  1.4671229100234568  2.6358724518687833   T   T   T
  1.8647905828308209 -0.1286827741159562  2.6096020199656249   T   T   T
  1.8033665853690468 -0.0830012267904934  6.5062504676943922   T   T   T
  4.5400618551723548  3.8360608814694319  0.6576549781434478   T   T   T
  4.4776047275929320  3.8836673810662732  4.5532213638383796   T   T   T
