Al1 Cu3
1.0
3.671481 0.000000 0.000000
0.000000 3.671481 0.000000
0.000000 0.000000 3.671481
Al Cu
1 3
direct
0.000000 0.000000 0.000000 Al
0.500000 0.500000 0.000000 Cu
0.500000 0.000000 0.500000 Cu
0.000000 0.500000 0.500000 Cu
