Ca Si 
 1.0000000000000000
     3.8966785891628182    0.0022193682683611    0.0049656789121469
    -0.0022099153695217    5.8001490377931786   -0.8581579472531058
    -0.0103908171736051   -1.0799541392906489    8.6365815251185705
 Ca  Si 
   4   4
Selective dynamics
Cartesian
  2.5629252606176984  0.3083490014377655  2.5977365365318792   T   T   T
  2.5566255149522155  2.6667017865254952  6.4872410850022524   T   T   T
  0.6077629510722958  0.1014975632881570  8.0413796996886546   T   T   T
  0.6118546990656430  3.5435984659236115  3.2920761834975294   T   T   T
  0.6113063344365166  0.8393564172764032  4.9310282474732894   T   T   T
  2.5634757030897819  3.0097994286294858  0.9584016346563461   T   T   T
  2.5593825817925739 -0.4301559981238989  5.7078239105715678   T   T   T
  0.6153951415340020  4.2805846345500456  0.1844225569726476   T   T   T
